Minimize
  - 52 y_0 - 30 y_2 - 49 y_3 - 43 y_4 - 48 y_5 - 45 y_6 - 47 y_7 - 51 y_8
   - 49 y_9 - 35 y_10 - 44 y_11 - 38 y_12 - 39 y_13 - 32 y_14 - 35 y_15
   - 10 y_16 - 42 y_17 - 22 y_18 - 28 y_19 + 57 x_0_4 + 18 x_0_6 + 17 x_0_9
   + 49 x_0_12 + 77 x_0_15 + 97 x_1_5 + 89 x_1_6 + 94 x_1_7 + 76 x_1_12
   + 70 x_1_15 + 45 x_1_18 + 59 x_2_5 + 84 x_2_6 + 95 x_2_7 + 78 x_2_8
   + 93 x_2_9 + 42 x_2_11 + 32 x_2_17 + 69 x_3_4 + 33 x_3_10 + 31 x_3_13
   + 62 x_3_15 + 84 x_3_16 + 53 x_3_17 + 64 x_3_19 + 41 x_4_6 + 31 x_4_7
   + 86 x_4_16 + 25 x_5_8 + 20 x_5_11 + 44 x_5_15 + 79 x_5_16 + 32 x_5_17
   + 29 x_6_8 + 51 x_6_14 + 79 x_6_16 + 45 x_6_18 + 20 x_7_13 + 47 x_7_14
   + 78 x_8_14 + 65 x_8_15 + 56 x_8_17 + 20 x_9_13 + 53 x_9_18 + 81 x_9_19
   + 36 x_10_12 + 46 x_10_14 + 27 x_10_18 + 54 x_10_19 + 95 x_11_14
   + 64 x_11_18 + 28 x_12_15 + 31 x_12_19 + 34 x_13_18 + 64 x_13_19
   + 44 x_15_5 + 36 x_16_19 + 739 Constant
Subject To
 c_0: y_10 = 1
 c_1_0: y_0 >= 1
 c_1_1: y_1 >= 1
 c_1_2: y_2 >= 1
 c_1_3: y_3 >= 1
 c_1_4: y_4 >= 1
 c_1_5: y_5 >= 1
 c_1_6: y_6 >= 1
 c_1_7: y_7 >= 1
 c_1_8: y_8 >= 1
 c_1_9: y_9 >= 1
 c_1_10: y_10 >= 1
 c_1_11: y_11 >= 1
 c_1_12: y_12 >= 1
 c_1_13: y_13 >= 1
 c_1_14: y_14 >= 1
 c_1_15: y_15 >= 1
 c_1_16: y_16 >= 1
 c_1_17: y_17 >= 1
 c_1_18: y_18 >= 1
 c_1_19: y_19 >= 1
 c_2_0: - 2 y_0 + x_0_4 + x_0_6 + x_0_9 + x_0_12 + x_0_15 = 0
 c_2_1: - 2 y_1 + x_1_5 + x_1_6 + x_1_7 + x_1_12 + x_1_15 + x_1_18 = 0
 c_2_2: - 2 y_2 + x_2_5 + x_2_6 + x_2_7 + x_2_8 + x_2_9 + x_2_11 + x_2_17
   = 0
 c_2_3: - 2 y_3 + x_3_4 + x_3_10 + x_3_13 + x_3_15 + x_3_16 + x_3_17
   + x_3_19 = 0
 c_2_4: - 2 y_4 + x_0_4 + x_3_4 + x_4_6 + x_4_7 + x_4_16 = 0
 c_2_5: - 2 y_5 + x_1_5 + x_2_5 + x_5_8 + x_5_11 + x_5_16 + x_5_17
   + 2 x_15_5 = 0
 c_2_6: - 2 y_6 + x_0_6 + x_1_6 + x_2_6 + x_4_6 + x_6_8 + x_6_14 + x_6_16
   + x_6_18 = 0
 c_2_7: - 2 y_7 + x_1_7 + x_2_7 + x_4_7 + x_7_13 + x_7_14 = 0
 c_2_8: - 2 y_8 + x_2_8 + x_5_8 + x_6_8 + x_8_14 + x_8_15 + x_8_17 = 0
 c_2_9: - 2 y_9 + x_0_9 + x_2_9 + x_9_13 + x_9_18 + x_9_19 = 0
 c_2_10: - 2 y_10 + x_3_10 + x_10_12 + x_10_14 + x_10_18 + x_10_19 = 0
 c_2_11: - 2 y_11 + x_2_11 + x_5_11 + x_11_14 + x_11_18 = 0
 c_2_12: - 2 y_12 + x_0_12 + x_1_12 + x_10_12 + x_12_15 + x_12_19 = 0
 c_2_13: - 2 y_13 + x_3_13 + x_7_13 + x_9_13 + x_13_18 + x_13_19 = 0
 c_2_14: - 2 y_14 + x_6_14 + x_7_14 + x_8_14 + x_10_14 + x_11_14 = 0
 c_2_15: - 2 y_15 + x_0_15 + x_1_15 + x_3_15 + x_8_15 + x_12_15 + 2 x_15_5
   = 0
 c_2_16: - 2 y_16 + x_3_16 + x_4_16 + x_5_16 + x_6_16 + x_16_19 = 0
 c_2_17: - 2 y_17 + x_2_17 + x_3_17 + x_5_17 + x_8_17 = 0
 c_2_18: - 2 y_18 + x_1_18 + x_6_18 + x_9_18 + x_10_18 + x_11_18 + x_13_18
   = 0
 c_2_19: - 2 y_19 + x_3_19 + x_9_19 + x_10_19 + x_12_19 + x_13_19 + x_16_19
   = 0
Bounds
 Constant = 1
Binaries
 y_0 y_1 y_2 y_3 y_4 y_5 y_6 y_7 y_8 y_9 y_10 y_11 y_12 y_13 y_14 y_15 y_16
 y_17 y_18 y_19 x_0_4 x_0_6 x_0_9 x_0_12 x_0_15 x_1_5 x_1_6 x_1_7 x_1_12
 x_1_15 x_1_18 x_2_5 x_2_6 x_2_7 x_2_8 x_2_9 x_2_11 x_2_17 x_3_4 x_3_10
 x_3_13 x_3_15 x_3_16 x_3_17 x_3_19 x_4_6 x_4_7 x_4_16 x_5_8 x_5_11 x_5_15
 x_5_16 x_5_17 x_6_8 x_6_14 x_6_16 x_6_18 x_7_13 x_7_14 x_8_14 x_8_15
 x_8_17 x_9_13 x_9_18 x_9_19 x_10_12 x_10_14 x_10_18 x_10_19 x_11_14
 x_11_18 x_12_15 x_12_19 x_13_18 x_13_19 x_15_5 x_16_19
End
